ilp_joint_2/output/asexual reproduction_ilp.lp
Maximize
  1.4218083778627655e-04 Z_84_1_0 + 0.0384220947425704 Z_84_1_1
   + 0.4666045473432158 Z_84_1_2 + 0.00463915634160537 Z_84_1_3
Subject To
 constraint1_841: Z_84_1_0 + Z_84_1_1 + Z_84_1_2 + Z_84_1_3 <= 1
 constraint2_80: <= 1
 constraint2_81: <= 1
 constraint2_82: <= 1
 constraint2_83: <= 1
 constraint2_390: <= 1
 constraint2_391: <= 1
 constraint2_392: <= 1
 constraint2_393: <= 1
 constraint2_840: Z_84_1_0 <= 1
 constraint2_841: Z_84_1_1 <= 1
 constraint2_842: Z_84_1_2 <= 1
 constraint2_843: Z_84_1_3 <= 1
Bounds
Binaries
 Z_84_1_0 Z_84_1_1 Z_84_1_2 Z_84_1_3
End
