ilp_joint_2/output/asexual reproduction_ilp.mps
NAME asexual reproduction_srl_ilp
* Max problem is converted into Min one
ROWS
 N  OBJ
 L  constraint1_841
 L  constraint2_80
 L  constraint2_81
 L  constraint2_82
 L  constraint2_83
 L  constraint2_390
 L  constraint2_391
 L  constraint2_392
 L  constraint2_393
 L  constraint2_840
 L  constraint2_841
 L  constraint2_842
 L  constraint2_843
COLUMNS
    MARKER    'MARKER'                 'INTORG'
    Z_84_1_0  OBJ       -1.4218083778627655e-04
    Z_84_1_0  constraint1_841  1
    Z_84_1_0  constraint2_840  1
    Z_84_1_1  OBJ       -3.8422094742570412e-02
    Z_84_1_1  constraint1_841  1
    Z_84_1_1  constraint2_841  1
    Z_84_1_2  OBJ       -4.6660454734321577e-01
    Z_84_1_2  constraint1_841  1
    Z_84_1_2  constraint2_842  1
    Z_84_1_3  OBJ       -4.6391563416053692e-03
    Z_84_1_3  constraint1_841  1
    Z_84_1_3  constraint2_843  1
    MARKER    'MARKER'                 'INTEND'
RHS
    RHS1      constraint1_841  1
    RHS1      constraint2_80  1
    RHS1      constraint2_81  1
    RHS1      constraint2_82  1
    RHS1      constraint2_83  1
    RHS1      constraint2_390  1
    RHS1      constraint2_391  1
    RHS1      constraint2_392  1
    RHS1      constraint2_393  1
    RHS1      constraint2_840  1
    RHS1      constraint2_841  1
    RHS1      constraint2_842  1
    RHS1      constraint2_843  1
BOUNDS
 UP BND1      Z_84_1_0  1
 UP BND1      Z_84_1_1  1
 UP BND1      Z_84_1_2  1
 UP BND1      Z_84_1_3  1
ENDATA
