ilp_joint_2/output/asexual reproduction_ilp.sol
# Solution for model asexual reproduction_srl_ilp
# Objective value = 4.6660454734321577e-01
Z_84_1_0 0
Z_84_1_1 0
Z_84_1_2 1
Z_84_1_3 0
